! Startup and Initialization
ISTART = 0
ICHARG = 2

! System & Magnetism
ISPIN = 2
MAGMOM = 8*3 24*5 8*0 # Ir Mn H

! Electronic Relaxation
ENCUT = 400
EDIFF = 1E-04
#PREC = Accurate
ISMEAR = 1
SIGMA = 0.2
ALGO = Normal
LREAL = Auto
#IVDW = 12

! Ionic Relaxation
NSW = 100
IBRION = 2
ISIF = 2
EDIFFG = -0.02
#POTIM = 0
#ISYM = 0

! Parallelization
NPAR = 4

! Output Control
LWAVE = .FALSE.
#LCHARG = .FALSE.
LAECHG = .TRUE.
LORBIT = 11

! Implicit Solvation (if used)
#LSOL = .TRUE.