Pt
 1.0000000000000000
     7.0202799999999996    2.4309900000000000    0.0000000000000000
     0.0000000000000000    4.8635999999999999    0.0000000000000000
     0.0000000000000000    0.0000000000000000   26.8791168999999996
 Pt 
  20
Selective dynamics
Cartesian
  0.7017522839074930  3.6472949991430075 10.0000000008675869   F   F   F
  2.1059461431911961  1.2151598911874508 10.0000000008675869   F   F   F
  3.5101400024748997  3.6472949991430053 10.0000000008675869   F   F   F
  3.5101399975251497  2.0258715966970500 12.2930389669559261   F   F   F
  2.1059461431911961  4.4580066960793641 12.2930389669559261   F   F   F
  0.7017522888572426  2.0258715966970153 12.2930389669559261   F   F   F
  2.1089109521817200  2.8346778630557106 14.5522025386910521   T   T   T
  0.7047573170490485  0.4031405937412585 14.5525653797114956   T   T   T
  0.7041665635440694  3.6427373449836522 16.8461852517962747   T   T   T
  2.1093677535923665  1.2106612321783428 16.8469258114157299   T   T   T
  3.5131688042167597  3.6434932294687048 16.8472922933414644   T   T   T
  4.9143338568088035  6.0794300985253367 10.0000000008675869   F   F   F
  6.3185277111427567  6.8901418040349354 12.2930389669559261   F   F   F
  3.5133094899066282  5.2657985302973938 14.5531912656939610   T   T   T
  4.9170341834393669  6.0767750162908651 16.8469995874464686   T   T   T
  6.3185277111427567  3.6472949991430226 10.0000000008675869   F   F   F
  4.9143338568088035  4.4580066989371154 12.2930389629144372   F   F   F
  4.9168066930758583  2.8337700949532154 14.5525318148369944   T   T   T
  6.3223636040521312  3.6441181909982365 16.8462984801144131   T   T   T
  6.3213676726425154  5.2660319978182093 14.5518020732330911   T   T   T
